NAME: random-62-16954
TYPE: TSP
COMMENT: size=62 seed=16954
DIMENSION: 126
EDGE_WEIGHT_TYPE: EUC_2D
NODE_COORD_SECTION
+0 878 736
-0 878 736
+1 516 824
-1 317 289
+2 690 24
-2 613 928
+3 432 926
-3 416 802
+4 392 356
-4 860 797
+5 596 205
-5 91 0
+6 25 431
-6 773 570
+7 820 701
-7 387 470
+8 945 530
-8 827 974
+9 891 18
-9 472 363
+10 882 362
-10 525 60
+11 575 626
-11 436 461
+12 995 72
-12 189 909
+13 375 556
-13 42 626
+14 840 938
-14 762 640
+15 749 573
-15 555 920
+16 785 784
-16 794 146
+17 516 332
-17 556 610
+18 831 78
-18 503 78
+19 511 41
-19 680 700
+20 712 801
-20 23 170
+21 378 599
-21 963 610
+22 486 884
-22 761 471
+23 473 234
-23 821 690
+24 122 396
-24 650 202
+25 431 87
-25 691 31
+26 616 455
-26 717 418
+27 9 619
-27 527 532
+28 636 603
-28 119 367
+29 392 564
-29 773 531
+30 366 593
-30 326 751
+31 445 474
-31 855 271
+32 22 947
-32 82 625
+33 672 311
-33 691 503
+34 646 101
-34 249 809
+35 272 668
-35 136 761
+36 174 950
-36 172 447
+37 312 270
-37 339 274
+38 638 584
-38 552 546
+39 950 513
-39 637 299
+40 295 905
-40 402 665
+41 845 634
-41 70 847
+42 403 904
-42 676 171
+43 688 449
-43 188 989
+44 70 56
-44 123 245
+45 815 822
-45 530 841
+46 582 387
-46 97 667
+47 62 715
-47 493 153
+48 377 490
-48 592 544
+49 605 125
-49 910 301
+50 816 895
-50 180 677
+51 664 975
-51 597 995
+52 35 445
-52 843 771
+53 430 656
-53 709 243
+54 807 892
-54 969 269
+55 3 772
-55 45 369
+56 253 823
-56 403 513
+57 623 774
-57 928 657
+58 42 463
-58 425 575
+59 140 343
-59 378 551
+60 305 685
-60 548 999
+61 772 766
-61 371 244
+62 763 271
-62 706 594
PRECEDENCE_SECTION
+0 -0
+1 -1
+2 -2
+3 -3
+4 -4
+5 -5
+6 -6
+7 -7
+8 -8
+9 -9
+10 -10
+11 -11
+12 -12
+13 -13
+14 -14
+15 -15
+16 -16
+17 -17
+18 -18
+19 -19
+20 -20
+21 -21
+22 -22
+23 -23
+24 -24
+25 -25
+26 -26
+27 -27
+28 -28
+29 -29
+30 -30
+31 -31
+32 -32
+33 -33
+34 -34
+35 -35
+36 -36
+37 -37
+38 -38
+39 -39
+40 -40
+41 -41
+42 -42
+43 -43
+44 -44
+45 -45
+46 -46
+47 -47
+48 -48
+49 -49
+50 -50
+51 -51
+52 -52
+53 -53
+54 -54
+55 -55
+56 -56
+57 -57
+58 -58
+59 -59
+60 -60
+61 -61
+62 -62
EOF
